(set-logic QF_NRA)
(declare-fun a () Real)
(declare-fun b () Real)
(declare-fun c () Real)
(declare-fun x () Real)
(declare-fun y () Real)
(assert (and (not (= (* a b) 0)) (implies (= (- (+ (* (* b b) (* (- x c) (- x c))) (* (* a a) (* y y))) (* (* a a) (* b b))) 0) (<= (- (+ (* x x) (* y y)) 1) 0))))
(eliminate-quantifiers (forall x y))
(exit)
